# Solution for model Model5
# Objective value = 3202
y[0,0,3] 0
y[0,0,4] 1
y[0,1,1] 1
y[0,1,3] 0
y[0,2,0] 1
y[0,2,1] 0
y[0,2,2] 0
y[1,0,4] 0
y[1,0,5] 1
y[1,1,1] 0
y[1,1,2] 1
y[1,2,0] 0
y[1,2,2] 1
y[2,0,3] 0
y[2,0,4] 1
y[2,0,5] 0
y[2,1,2] 0
y[2,1,3] 1
y[2,2,0] 0
y[2,2,1] 1
y[3,0,3] 1
y[3,0,5] 0
y[3,1,4] 1
y[3,2,0] 0
y[3,2,1] 1
y[4,0,4] 0
y[4,0,5] 1
y[4,1,2] 0
y[4,1,3] 1
y[4,1,4] 0
y[4,2,0] 1
y[4,2,1] 0
y[4,2,2] 0
x[0,0,0,0] 0
x[0,0,0,1] 0
x[0,0,0,2] 0
x[0,0,1,0] 0
x[0,0,1,1] 0
x[0,0,1,2] 0
x[0,0,2,0] 1
x[0,0,2,1] 1
x[0,0,2,2] 0
x[0,0,3,0] 1
x[0,0,3,1] 1
x[0,0,3,2] 0
x[0,0,4,0] 1
x[0,0,4,1] 1
x[0,0,4,2] 0
x[0,1,0,0] 1
x[0,1,0,1] 0
x[0,1,0,2] 1
x[0,1,1,0] 0
x[0,1,1,1] 0
x[0,1,1,2] 0
x[0,1,2,0] 1
x[0,1,2,1] 0
x[0,1,2,2] 1
x[0,1,3,0] 0
x[0,1,3,1] 0
x[0,1,3,2] 1
x[0,1,4,0] 0
x[0,1,4,1] 0
x[0,1,4,2] 1
x[0,2,0,0] 0
x[0,2,0,1] 0
x[0,2,0,2] 0
x[0,2,1,0] 0
x[0,2,1,1] 0
x[0,2,1,2] 0
x[0,2,2,0] 0
x[0,2,2,1] 0
x[0,2,2,2] 0
x[0,2,3,0] 0
x[0,2,3,1] 0
x[0,2,3,2] 0
x[0,2,4,0] 0
x[0,2,4,1] 0
x[0,2,4,2] 1
x[1,0,0,0] 0
x[1,0,0,1] 0
x[1,0,0,2] 0
x[1,0,1,0] 0
x[1,0,1,1] 0
x[1,0,1,2] 0
x[1,0,2,0] 1
x[1,0,2,1] 0
x[1,0,2,2] 0
x[1,0,3,0] 0
x[1,0,3,1] 1
x[1,0,3,2] 0
x[1,0,4,0] 1
x[1,0,4,1] 1
x[1,0,4,2] 0
x[1,1,0,0] 0
x[1,1,0,1] 0
x[1,1,0,2] 0
x[1,1,1,0] 0
x[1,1,1,1] 0
x[1,1,1,2] 1
x[1,1,2,0] 0
x[1,1,2,1] 1
x[1,1,2,2] 0
x[1,1,3,0] 0
x[1,1,3,1] 0
x[1,1,3,2] 1
x[1,1,4,0] 0
x[1,1,4,1] 0
x[1,1,4,2] 1
x[1,2,0,0] 0
x[1,2,0,1] 0
x[1,2,0,2] 0
x[1,2,1,0] 0
x[1,2,1,1] 0
x[1,2,1,2] 0
x[1,2,2,0] 0
x[1,2,2,1] 0
x[1,2,2,2] 0
x[1,2,3,0] 0
x[1,2,3,1] 0
x[1,2,3,2] 0
x[1,2,4,0] 0
x[1,2,4,1] 0
x[1,2,4,2] 0
x[2,0,0,0] 0
x[2,0,0,1] 0
x[2,0,0,2] 0
x[2,0,1,0] 0
x[2,0,1,1] 0
x[2,0,1,2] 0
x[2,0,2,0] 0
x[2,0,2,1] 1
x[2,0,2,2] 0
x[2,0,3,0] 1
x[2,0,3,1] 1
x[2,0,3,2] 0
x[2,0,4,0] 0
x[2,0,4,1] 0
x[2,0,4,2] 0
x[2,1,0,0] 0
x[2,1,0,1] 0
x[2,1,0,2] 0
x[2,1,1,0] 0
x[2,1,1,1] 0
x[2,1,1,2] 0
x[2,1,2,0] 0
x[2,1,2,1] 0
x[2,1,2,2] 0
x[2,1,3,0] 0
x[2,1,3,1] 0
x[2,1,3,2] 0
x[2,1,4,0] 0
x[2,1,4,1] 1
x[2,1,4,2] 0
x[2,2,0,0] 0
x[2,2,0,1] 0
x[2,2,0,2] 0
x[2,2,1,0] 0
x[2,2,1,1] 0
x[2,2,1,2] 0
x[2,2,2,0] 0
x[2,2,2,1] 0
x[2,2,2,2] 0
x[2,2,3,0] 0
x[2,2,3,1] 0
x[2,2,3,2] 1
x[2,2,4,0] 0
x[2,2,4,1] 0
x[2,2,4,2] 0
x[3,0,0,0] 0
x[3,0,0,1] 0
x[3,0,0,2] 0
x[3,0,1,0] 0
x[3,0,1,1] 0
x[3,0,1,2] 0
x[3,0,2,0] 0
x[3,0,2,1] 0
x[3,0,2,2] 0
x[3,0,3,0] 0
x[3,0,3,1] 0
x[3,0,3,2] 0
x[3,0,4,0] 0
x[3,0,4,1] 1
x[3,0,4,2] 0
x[3,1,0,0] 0
x[3,1,0,1] 0
x[3,1,0,2] 0
x[3,1,1,0] 0
x[3,1,1,1] 0
x[3,1,1,2] 0
x[3,1,2,0] 0
x[3,1,2,1] 0
x[3,1,2,2] 0
x[3,1,3,0] 0
x[3,1,3,1] 0
x[3,1,3,2] 0
x[3,1,4,0] 0
x[3,1,4,1] 0
x[3,1,4,2] 0
x[3,2,0,0] 0
x[3,2,0,1] 0
x[3,2,0,2] 0
x[3,2,1,0] 0
x[3,2,1,1] 0
x[3,2,1,2] 0
x[3,2,2,0] 0
x[3,2,2,1] 0
x[3,2,2,2] 0
x[3,2,3,0] 0
x[3,2,3,1] 0
x[3,2,3,2] 0
x[3,2,4,0] 0
x[3,2,4,1] 0
x[3,2,4,2] 1
x[4,0,0,0] 0
x[4,0,0,1] 0
x[4,0,0,2] 0
x[4,0,1,0] 0
x[4,0,1,1] 0
x[4,0,1,2] 0
x[4,0,2,0] 0
x[4,0,2,1] 0
x[4,0,2,2] 0
x[4,0,3,0] 0
x[4,0,3,1] 0
x[4,0,3,2] 0
x[4,0,4,0] 0
x[4,0,4,1] 0
x[4,0,4,2] 0
x[4,1,0,0] 0
x[4,1,0,1] 0
x[4,1,0,2] 0
x[4,1,1,0] 0
x[4,1,1,1] 0
x[4,1,1,2] 0
x[4,1,2,0] 0
x[4,1,2,1] 0
x[4,1,2,2] 0
x[4,1,3,0] 0
x[4,1,3,1] 0
x[4,1,3,2] 0
x[4,1,4,0] 1
x[4,1,4,1] 0
x[4,1,4,2] 0
x[4,2,0,0] 0
x[4,2,0,1] 0
x[4,2,0,2] 0
x[4,2,1,0] 0
x[4,2,1,1] 0
x[4,2,1,2] 0
x[4,2,2,0] 0
x[4,2,2,1] 0
x[4,2,2,2] 0
x[4,2,3,0] 0
x[4,2,3,1] 0
x[4,2,3,2] 0
x[4,2,4,0] 0
x[4,2,4,1] 0
x[4,2,4,2] 0
s[0,0,3] 0
s[0,0,4] 1.1920000000000011e+03
s[0,1,1] 1.0211142178026073e+03
s[0,1,3] 0
s[0,2,0] 807
s[0,2,1] 0
s[0,2,2] 0
s[1,0,4] 0
s[1,0,5] 9.1800000000000512e+02
s[1,1,1] 0
s[1,1,2] 831
s[1,2,0] 0
s[1,2,2] 480
s[2,0,3] 0
s[2,0,4] 8.2699999999999955e+02
s[2,0,5] 0
s[2,1,2] 0
s[2,1,3] 722.000000000001
s[2,2,0] 0
s[2,2,1] 6.4361579774765721e+02
s[3,0,3] 1.4070000000000016e+03
s[3,0,5] 0
s[3,1,4] 545
s[3,2,0] 0
s[3,2,1] 480
s[4,0,4] 0
s[4,0,5] 6.7300000000000512e+02
s[4,1,2] 0
s[4,1,3] 608
s[4,1,4] 0
s[4,2,0] 480
s[4,2,1] 0
s[4,2,2] 0
Z_FO 3202
C292 0
C293 1
C294 0
C295 1
C296 0
C297 1
C298 0
C299 1
C300 0
C301 0
C302 1
